50
17413

35 689
902 35
727 833
447 936
152 482
321 230
603 883
162 631
912 501
733 873
433 231
271 29
33 864
369 957
61 594
933 618
223 318
904 557
947 970
384 574
577 992
997 373
113 73
91 101
958 455
638 978
57 721
205 452
916 297
965 807
636 768
313 317
629 564
299 800
212 325
420 955
818 737
456 6
273 663
375 117
975 128
46 465
938 685
419 484
591 391
648 133
180 868
223 153
315 742
108 105
